71 72 73 74 75 76 64 62 63 61 60 59 81 80 79 78 77 88 89 90 87 86 85 50 52 51 84 83 82 57 58 56 55 53 54 49 48 47 44 43 42 39 40 41 557 556 555 45 46 91 92 93 94 95 96 97 98 554 553 552 99 100 102 101 551 550 559 558 560 561 562 549 548 564 563 565 566 567 568 569 570 17 18 19 20 21 24 25 26 27 28 29 34 33 35 38 37 36 32 30 31 22 23 12 13 14 15 16 11 10 9 8 7 6 5 4 3 2 1 0 573 572 571 467 466 465 464 496 497 463 462 461 460 459 458 457 456 455 454 438 437 436 435 434 433 432 430 429 428 431 445 444 443 439 442 446 447 448 449 450 441 440 453 452 499 500 501 451 312 311 310 309 313 316 314 315 374 373 372 371 396 395 375 376 377 378 379 380 381 390 389 388 391 392 393 394 397 398 399 400 403 402 401 360 357 354 353 355 356 412 411 410 384 383 385 409 404 405 406 407 408 387 386 382 425 424 426 427 423 422 421 420 419 418 417 416 415 414 413 352 351 350 347 348 349 358 359 361 362 363 364 346 345 344 343 342 365 368 369 370 367 366 329 328 327 326 325 324 323 322 321 320 319 317 318 305 306 304 303 307 308 505 504 503 502 498 519 518 495 494 472 471 470 469 468 474 473 475 476 477 478 479 480 481 482 483 484 485 486 487 534 535 536 537 539 538 540 176 177 178 187 188 186 227 228 229 230 231 533 488 489 532 531 530 529 490 491 492 493 524 525 526 523 522 521 520 517 514 515 516 506 507 508 302 301 300 299 298 297 296 295 294 270 293 330 331 332 340 341 339 338 337 336 333 335 334 283 284 285 286 287 280 281 282 279 278 277 276 288 289 290 291 292 275 274 273 272 271 269 268 267 266 265 264 263 262 261 260 259 258 257 256 255 253 254 252 251 250 249 248 241 242 244 245 247 246 238 239 243 240 237 509 510 511 513 512 527 528 236 235 234 233 232 225 226 189 190 191 192 193 219 218 220 221 222 224 223 217 216 215 214 213 212 211 210 209 208 207 206 205 196 195 194 184 185 183 182 179 180 181 197 198 199 200 201 202 204 203 165 164 166 167 163 162 168 169 171 170 172 175 174 173 108 109 111 110 107 542 541 543 544 545 546 547 103 104 105 118 119 120 121 122 123 117 106 116 115 114 112 113 161 160 154 155 159 156 153 157 158 145 144 143 142 146 147 148 152 149 150 151 141 140 139 138 137 136 135 134 133 132 131 130 129 128 127 126 125 124 69 70 68 67 66 65